(set-logic QF_LRA)
(declare-fun X0 () Real )
(declare-fun Y0 () Real )
(declare-fun X1 () Real )
(declare-fun Y1 () Real )
(declare-fun X2 () Real )
(declare-fun Y2 () Real )
(declare-fun X3 () Real )
(declare-fun Y3 () Real )
(declare-fun X4 () Real )
(declare-fun Y4 () Real )
(declare-fun X5 () Real )
(declare-fun Y5 () Real )
(declare-fun X6 () Real )
(declare-fun Y6 () Real )
(declare-fun X7 () Real )
(declare-fun Y7 () Real )
(declare-fun X8 () Real )
(declare-fun Y8 () Real )
(declare-fun X9 () Real )
(declare-fun Y9 () Real )
(declare-fun X10 () Real )
(declare-fun Y10 () Real )
(declare-fun X11 () Real )
(declare-fun Y11 () Real )
(declare-fun X12 () Real )
(declare-fun Y12 () Real )
(declare-fun X13 () Real )
(declare-fun Y13 () Real )
(declare-fun X14 () Real )
(declare-fun Y14 () Real )
(declare-fun Z () Real )
(assert ( and  
( or ( <= ( + X0 49 ) X1 )  ( <= ( + X1 51 ) X0 )  ( <= ( + Y0 59 ) Y1 )  ( <= ( + Y1 88 ) Y0 )  )
( or ( <= ( + X0 49 ) X2 )  ( <= ( + X2 10 ) X0 )  ( <= ( + Y0 59 ) Y2 )  ( <= ( + Y2 77 ) Y0 )  )
( or ( <= ( + X0 49 ) X3 )  ( <= ( + X3 79 ) X0 )  ( <= ( + Y0 59 ) Y3 )  ( <= ( + Y3 22 ) Y0 )  )
( or ( <= ( + X0 49 ) X4 )  ( <= ( + X4 56 ) X0 )  ( <= ( + Y0 59 ) Y4 )  ( <= ( + Y4 10 ) Y0 )  )
( or ( <= ( + X0 49 ) X5 )  ( <= ( + X5 15 ) X0 )  ( <= ( + Y0 59 ) Y5 )  ( <= ( + Y5 91 ) Y0 )  )
( or ( <= ( + X0 49 ) X6 )  ( <= ( + X6 60 ) X0 )  ( <= ( + Y0 59 ) Y6 )  ( <= ( + Y6 53 ) Y0 )  )
( or ( <= ( + X0 49 ) X7 )  ( <= ( + X7 40 ) X0 )  ( <= ( + Y0 59 ) Y7 )  ( <= ( + Y7 32 ) Y0 )  )
( or ( <= ( + X0 49 ) X8 )  ( <= ( + X8 59 ) X0 )  ( <= ( + Y0 59 ) Y8 )  ( <= ( + Y8 87 ) Y0 )  )
( or ( <= ( + X0 49 ) X9 )  ( <= ( + X9 52 ) X0 )  ( <= ( + Y0 59 ) Y9 )  ( <= ( + Y9 28 ) Y0 )  )
( or ( <= ( + X0 49 ) X10 )  ( <= ( + X10 93 ) X0 )  ( <= ( + Y0 59 ) Y10 )  ( <= ( + Y10 21 ) Y0 )  )
( or ( <= ( + X0 49 ) X11 )  ( <= ( + X11 81 ) X0 )  ( <= ( + Y0 59 ) Y11 )  ( <= ( + Y11 82 ) Y0 )  )
( or ( <= ( + X0 49 ) X12 )  ( <= ( + X12 67 ) X0 )  ( <= ( + Y0 59 ) Y12 )  ( <= ( + Y12 46 ) Y0 )  )
( or ( <= ( + X0 49 ) X13 )  ( <= ( + X13 66 ) X0 )  ( <= ( + Y0 59 ) Y13 )  ( <= ( + Y13 95 ) Y0 )  )
( or ( <= ( + X0 49 ) X14 )  ( <= ( + X14 81 ) X0 )  ( <= ( + Y0 59 ) Y14 )  ( <= ( + Y14 86 ) Y0 )  )
( or ( <= ( + X1 51 ) X2 )  ( <= ( + X2 10 ) X1 )  ( <= ( + Y1 88 ) Y2 )  ( <= ( + Y2 77 ) Y1 )  )
( or ( <= ( + X1 51 ) X3 )  ( <= ( + X3 79 ) X1 )  ( <= ( + Y1 88 ) Y3 )  ( <= ( + Y3 22 ) Y1 )  )
( or ( <= ( + X1 51 ) X4 )  ( <= ( + X4 56 ) X1 )  ( <= ( + Y1 88 ) Y4 )  ( <= ( + Y4 10 ) Y1 )  )
( or ( <= ( + X1 51 ) X5 )  ( <= ( + X5 15 ) X1 )  ( <= ( + Y1 88 ) Y5 )  ( <= ( + Y5 91 ) Y1 )  )
( or ( <= ( + X1 51 ) X6 )  ( <= ( + X6 60 ) X1 )  ( <= ( + Y1 88 ) Y6 )  ( <= ( + Y6 53 ) Y1 )  )
( or ( <= ( + X1 51 ) X7 )  ( <= ( + X7 40 ) X1 )  ( <= ( + Y1 88 ) Y7 )  ( <= ( + Y7 32 ) Y1 )  )
( or ( <= ( + X1 51 ) X8 )  ( <= ( + X8 59 ) X1 )  ( <= ( + Y1 88 ) Y8 )  ( <= ( + Y8 87 ) Y1 )  )
( or ( <= ( + X1 51 ) X9 )  ( <= ( + X9 52 ) X1 )  ( <= ( + Y1 88 ) Y9 )  ( <= ( + Y9 28 ) Y1 )  )
( or ( <= ( + X1 51 ) X10 )  ( <= ( + X10 93 ) X1 )  ( <= ( + Y1 88 ) Y10 )  ( <= ( + Y10 21 ) Y1 )  )
( or ( <= ( + X1 51 ) X11 )  ( <= ( + X11 81 ) X1 )  ( <= ( + Y1 88 ) Y11 )  ( <= ( + Y11 82 ) Y1 )  )
( or ( <= ( + X1 51 ) X12 )  ( <= ( + X12 67 ) X1 )  ( <= ( + Y1 88 ) Y12 )  ( <= ( + Y12 46 ) Y1 )  )
( or ( <= ( + X1 51 ) X13 )  ( <= ( + X13 66 ) X1 )  ( <= ( + Y1 88 ) Y13 )  ( <= ( + Y13 95 ) Y1 )  )
( or ( <= ( + X1 51 ) X14 )  ( <= ( + X14 81 ) X1 )  ( <= ( + Y1 88 ) Y14 )  ( <= ( + Y14 86 ) Y1 )  )
( or ( <= ( + X2 10 ) X3 )  ( <= ( + X3 79 ) X2 )  ( <= ( + Y2 77 ) Y3 )  ( <= ( + Y3 22 ) Y2 )  )
( or ( <= ( + X2 10 ) X4 )  ( <= ( + X4 56 ) X2 )  ( <= ( + Y2 77 ) Y4 )  ( <= ( + Y4 10 ) Y2 )  )
( or ( <= ( + X2 10 ) X5 )  ( <= ( + X5 15 ) X2 )  ( <= ( + Y2 77 ) Y5 )  ( <= ( + Y5 91 ) Y2 )  )
( or ( <= ( + X2 10 ) X6 )  ( <= ( + X6 60 ) X2 )  ( <= ( + Y2 77 ) Y6 )  ( <= ( + Y6 53 ) Y2 )  )
( or ( <= ( + X2 10 ) X7 )  ( <= ( + X7 40 ) X2 )  ( <= ( + Y2 77 ) Y7 )  ( <= ( + Y7 32 ) Y2 )  )
( or ( <= ( + X2 10 ) X8 )  ( <= ( + X8 59 ) X2 )  ( <= ( + Y2 77 ) Y8 )  ( <= ( + Y8 87 ) Y2 )  )
( or ( <= ( + X2 10 ) X9 )  ( <= ( + X9 52 ) X2 )  ( <= ( + Y2 77 ) Y9 )  ( <= ( + Y9 28 ) Y2 )  )
( or ( <= ( + X2 10 ) X10 )  ( <= ( + X10 93 ) X2 )  ( <= ( + Y2 77 ) Y10 )  ( <= ( + Y10 21 ) Y2 )  )
( or ( <= ( + X2 10 ) X11 )  ( <= ( + X11 81 ) X2 )  ( <= ( + Y2 77 ) Y11 )  ( <= ( + Y11 82 ) Y2 )  )
( or ( <= ( + X2 10 ) X12 )  ( <= ( + X12 67 ) X2 )  ( <= ( + Y2 77 ) Y12 )  ( <= ( + Y12 46 ) Y2 )  )
( or ( <= ( + X2 10 ) X13 )  ( <= ( + X13 66 ) X2 )  ( <= ( + Y2 77 ) Y13 )  ( <= ( + Y13 95 ) Y2 )  )
( or ( <= ( + X2 10 ) X14 )  ( <= ( + X14 81 ) X2 )  ( <= ( + Y2 77 ) Y14 )  ( <= ( + Y14 86 ) Y2 )  )
( or ( <= ( + X3 79 ) X4 )  ( <= ( + X4 56 ) X3 )  ( <= ( + Y3 22 ) Y4 )  ( <= ( + Y4 10 ) Y3 )  )
( or ( <= ( + X3 79 ) X5 )  ( <= ( + X5 15 ) X3 )  ( <= ( + Y3 22 ) Y5 )  ( <= ( + Y5 91 ) Y3 )  )
( or ( <= ( + X3 79 ) X6 )  ( <= ( + X6 60 ) X3 )  ( <= ( + Y3 22 ) Y6 )  ( <= ( + Y6 53 ) Y3 )  )
( or ( <= ( + X3 79 ) X7 )  ( <= ( + X7 40 ) X3 )  ( <= ( + Y3 22 ) Y7 )  ( <= ( + Y7 32 ) Y3 )  )
( or ( <= ( + X3 79 ) X8 )  ( <= ( + X8 59 ) X3 )  ( <= ( + Y3 22 ) Y8 )  ( <= ( + Y8 87 ) Y3 )  )
( or ( <= ( + X3 79 ) X9 )  ( <= ( + X9 52 ) X3 )  ( <= ( + Y3 22 ) Y9 )  ( <= ( + Y9 28 ) Y3 )  )
( or ( <= ( + X3 79 ) X10 )  ( <= ( + X10 93 ) X3 )  ( <= ( + Y3 22 ) Y10 )  ( <= ( + Y10 21 ) Y3 )  )
( or ( <= ( + X3 79 ) X11 )  ( <= ( + X11 81 ) X3 )  ( <= ( + Y3 22 ) Y11 )  ( <= ( + Y11 82 ) Y3 )  )
( or ( <= ( + X3 79 ) X12 )  ( <= ( + X12 67 ) X3 )  ( <= ( + Y3 22 ) Y12 )  ( <= ( + Y12 46 ) Y3 )  )
( or ( <= ( + X3 79 ) X13 )  ( <= ( + X13 66 ) X3 )  ( <= ( + Y3 22 ) Y13 )  ( <= ( + Y13 95 ) Y3 )  )
( or ( <= ( + X3 79 ) X14 )  ( <= ( + X14 81 ) X3 )  ( <= ( + Y3 22 ) Y14 )  ( <= ( + Y14 86 ) Y3 )  )
( or ( <= ( + X4 56 ) X5 )  ( <= ( + X5 15 ) X4 )  ( <= ( + Y4 10 ) Y5 )  ( <= ( + Y5 91 ) Y4 )  )
( or ( <= ( + X4 56 ) X6 )  ( <= ( + X6 60 ) X4 )  ( <= ( + Y4 10 ) Y6 )  ( <= ( + Y6 53 ) Y4 )  )
( or ( <= ( + X4 56 ) X7 )  ( <= ( + X7 40 ) X4 )  ( <= ( + Y4 10 ) Y7 )  ( <= ( + Y7 32 ) Y4 )  )
( or ( <= ( + X4 56 ) X8 )  ( <= ( + X8 59 ) X4 )  ( <= ( + Y4 10 ) Y8 )  ( <= ( + Y8 87 ) Y4 )  )
( or ( <= ( + X4 56 ) X9 )  ( <= ( + X9 52 ) X4 )  ( <= ( + Y4 10 ) Y9 )  ( <= ( + Y9 28 ) Y4 )  )
( or ( <= ( + X4 56 ) X10 )  ( <= ( + X10 93 ) X4 )  ( <= ( + Y4 10 ) Y10 )  ( <= ( + Y10 21 ) Y4 )  )
( or ( <= ( + X4 56 ) X11 )  ( <= ( + X11 81 ) X4 )  ( <= ( + Y4 10 ) Y11 )  ( <= ( + Y11 82 ) Y4 )  )
( or ( <= ( + X4 56 ) X12 )  ( <= ( + X12 67 ) X4 )  ( <= ( + Y4 10 ) Y12 )  ( <= ( + Y12 46 ) Y4 )  )
( or ( <= ( + X4 56 ) X13 )  ( <= ( + X13 66 ) X4 )  ( <= ( + Y4 10 ) Y13 )  ( <= ( + Y13 95 ) Y4 )  )
( or ( <= ( + X4 56 ) X14 )  ( <= ( + X14 81 ) X4 )  ( <= ( + Y4 10 ) Y14 )  ( <= ( + Y14 86 ) Y4 )  )
( or ( <= ( + X5 15 ) X6 )  ( <= ( + X6 60 ) X5 )  ( <= ( + Y5 91 ) Y6 )  ( <= ( + Y6 53 ) Y5 )  )
( or ( <= ( + X5 15 ) X7 )  ( <= ( + X7 40 ) X5 )  ( <= ( + Y5 91 ) Y7 )  ( <= ( + Y7 32 ) Y5 )  )
( or ( <= ( + X5 15 ) X8 )  ( <= ( + X8 59 ) X5 )  ( <= ( + Y5 91 ) Y8 )  ( <= ( + Y8 87 ) Y5 )  )
( or ( <= ( + X5 15 ) X9 )  ( <= ( + X9 52 ) X5 )  ( <= ( + Y5 91 ) Y9 )  ( <= ( + Y9 28 ) Y5 )  )
( or ( <= ( + X5 15 ) X10 )  ( <= ( + X10 93 ) X5 )  ( <= ( + Y5 91 ) Y10 )  ( <= ( + Y10 21 ) Y5 )  )
( or ( <= ( + X5 15 ) X11 )  ( <= ( + X11 81 ) X5 )  ( <= ( + Y5 91 ) Y11 )  ( <= ( + Y11 82 ) Y5 )  )
( or ( <= ( + X5 15 ) X12 )  ( <= ( + X12 67 ) X5 )  ( <= ( + Y5 91 ) Y12 )  ( <= ( + Y12 46 ) Y5 )  )
( or ( <= ( + X5 15 ) X13 )  ( <= ( + X13 66 ) X5 )  ( <= ( + Y5 91 ) Y13 )  ( <= ( + Y13 95 ) Y5 )  )
( or ( <= ( + X5 15 ) X14 )  ( <= ( + X14 81 ) X5 )  ( <= ( + Y5 91 ) Y14 )  ( <= ( + Y14 86 ) Y5 )  )
( or ( <= ( + X6 60 ) X7 )  ( <= ( + X7 40 ) X6 )  ( <= ( + Y6 53 ) Y7 )  ( <= ( + Y7 32 ) Y6 )  )
( or ( <= ( + X6 60 ) X8 )  ( <= ( + X8 59 ) X6 )  ( <= ( + Y6 53 ) Y8 )  ( <= ( + Y8 87 ) Y6 )  )
( or ( <= ( + X6 60 ) X9 )  ( <= ( + X9 52 ) X6 )  ( <= ( + Y6 53 ) Y9 )  ( <= ( + Y9 28 ) Y6 )  )
( or ( <= ( + X6 60 ) X10 )  ( <= ( + X10 93 ) X6 )  ( <= ( + Y6 53 ) Y10 )  ( <= ( + Y10 21 ) Y6 )  )
( or ( <= ( + X6 60 ) X11 )  ( <= ( + X11 81 ) X6 )  ( <= ( + Y6 53 ) Y11 )  ( <= ( + Y11 82 ) Y6 )  )
( or ( <= ( + X6 60 ) X12 )  ( <= ( + X12 67 ) X6 )  ( <= ( + Y6 53 ) Y12 )  ( <= ( + Y12 46 ) Y6 )  )
( or ( <= ( + X6 60 ) X13 )  ( <= ( + X13 66 ) X6 )  ( <= ( + Y6 53 ) Y13 )  ( <= ( + Y13 95 ) Y6 )  )
( or ( <= ( + X6 60 ) X14 )  ( <= ( + X14 81 ) X6 )  ( <= ( + Y6 53 ) Y14 )  ( <= ( + Y14 86 ) Y6 )  )
( or ( <= ( + X7 40 ) X8 )  ( <= ( + X8 59 ) X7 )  ( <= ( + Y7 32 ) Y8 )  ( <= ( + Y8 87 ) Y7 )  )
( or ( <= ( + X7 40 ) X9 )  ( <= ( + X9 52 ) X7 )  ( <= ( + Y7 32 ) Y9 )  ( <= ( + Y9 28 ) Y7 )  )
( or ( <= ( + X7 40 ) X10 )  ( <= ( + X10 93 ) X7 )  ( <= ( + Y7 32 ) Y10 )  ( <= ( + Y10 21 ) Y7 )  )
( or ( <= ( + X7 40 ) X11 )  ( <= ( + X11 81 ) X7 )  ( <= ( + Y7 32 ) Y11 )  ( <= ( + Y11 82 ) Y7 )  )
( or ( <= ( + X7 40 ) X12 )  ( <= ( + X12 67 ) X7 )  ( <= ( + Y7 32 ) Y12 )  ( <= ( + Y12 46 ) Y7 )  )
( or ( <= ( + X7 40 ) X13 )  ( <= ( + X13 66 ) X7 )  ( <= ( + Y7 32 ) Y13 )  ( <= ( + Y13 95 ) Y7 )  )
( or ( <= ( + X7 40 ) X14 )  ( <= ( + X14 81 ) X7 )  ( <= ( + Y7 32 ) Y14 )  ( <= ( + Y14 86 ) Y7 )  )
( or ( <= ( + X8 59 ) X9 )  ( <= ( + X9 52 ) X8 )  ( <= ( + Y8 87 ) Y9 )  ( <= ( + Y9 28 ) Y8 )  )
( or ( <= ( + X8 59 ) X10 )  ( <= ( + X10 93 ) X8 )  ( <= ( + Y8 87 ) Y10 )  ( <= ( + Y10 21 ) Y8 )  )
( or ( <= ( + X8 59 ) X11 )  ( <= ( + X11 81 ) X8 )  ( <= ( + Y8 87 ) Y11 )  ( <= ( + Y11 82 ) Y8 )  )
( or ( <= ( + X8 59 ) X12 )  ( <= ( + X12 67 ) X8 )  ( <= ( + Y8 87 ) Y12 )  ( <= ( + Y12 46 ) Y8 )  )
( or ( <= ( + X8 59 ) X13 )  ( <= ( + X13 66 ) X8 )  ( <= ( + Y8 87 ) Y13 )  ( <= ( + Y13 95 ) Y8 )  )
( or ( <= ( + X8 59 ) X14 )  ( <= ( + X14 81 ) X8 )  ( <= ( + Y8 87 ) Y14 )  ( <= ( + Y14 86 ) Y8 )  )
( or ( <= ( + X9 52 ) X10 )  ( <= ( + X10 93 ) X9 )  ( <= ( + Y9 28 ) Y10 )  ( <= ( + Y10 21 ) Y9 )  )
( or ( <= ( + X9 52 ) X11 )  ( <= ( + X11 81 ) X9 )  ( <= ( + Y9 28 ) Y11 )  ( <= ( + Y11 82 ) Y9 )  )
( or ( <= ( + X9 52 ) X12 )  ( <= ( + X12 67 ) X9 )  ( <= ( + Y9 28 ) Y12 )  ( <= ( + Y12 46 ) Y9 )  )
( or ( <= ( + X9 52 ) X13 )  ( <= ( + X13 66 ) X9 )  ( <= ( + Y9 28 ) Y13 )  ( <= ( + Y13 95 ) Y9 )  )
( or ( <= ( + X9 52 ) X14 )  ( <= ( + X14 81 ) X9 )  ( <= ( + Y9 28 ) Y14 )  ( <= ( + Y14 86 ) Y9 )  )
( or ( <= ( + X10 93 ) X11 )  ( <= ( + X11 81 ) X10 )  ( <= ( + Y10 21 ) Y11 )  ( <= ( + Y11 82 ) Y10 )  )
( or ( <= ( + X10 93 ) X12 )  ( <= ( + X12 67 ) X10 )  ( <= ( + Y10 21 ) Y12 )  ( <= ( + Y12 46 ) Y10 )  )
( or ( <= ( + X10 93 ) X13 )  ( <= ( + X13 66 ) X10 )  ( <= ( + Y10 21 ) Y13 )  ( <= ( + Y13 95 ) Y10 )  )
( or ( <= ( + X10 93 ) X14 )  ( <= ( + X14 81 ) X10 )  ( <= ( + Y10 21 ) Y14 )  ( <= ( + Y14 86 ) Y10 )  )
( or ( <= ( + X11 81 ) X12 )  ( <= ( + X12 67 ) X11 )  ( <= ( + Y11 82 ) Y12 )  ( <= ( + Y12 46 ) Y11 )  )
( or ( <= ( + X11 81 ) X13 )  ( <= ( + X13 66 ) X11 )  ( <= ( + Y11 82 ) Y13 )  ( <= ( + Y13 95 ) Y11 )  )
( or ( <= ( + X11 81 ) X14 )  ( <= ( + X14 81 ) X11 )  ( <= ( + Y11 82 ) Y14 )  ( <= ( + Y14 86 ) Y11 )  )
( or ( <= ( + X12 67 ) X13 )  ( <= ( + X13 66 ) X12 )  ( <= ( + Y12 46 ) Y13 )  ( <= ( + Y13 95 ) Y12 )  )
( or ( <= ( + X12 67 ) X14 )  ( <= ( + X14 81 ) X12 )  ( <= ( + Y12 46 ) Y14 )  ( <= ( + Y14 86 ) Y12 )  )
( or ( <= ( + X13 66 ) X14 )  ( <= ( + X14 81 ) X13 )  ( <= ( + Y13 95 ) Y14 )  ( <= ( + Y14 86 ) Y13 )  )
( >= X0 0)
( <= ( + X0 49) Z)
( >= Y0 0)
( <= ( + Y0 59 ) 193)
( >= X1 0)
( <= ( + X1 51) Z)
( >= Y1 0)
( <= ( + Y1 88 ) 193)
( >= X2 0)
( <= ( + X2 10) Z)
( >= Y2 0)
( <= ( + Y2 77 ) 193)
( >= X3 0)
( <= ( + X3 79) Z)
( >= Y3 0)
( <= ( + Y3 22 ) 193)
( >= X4 0)
( <= ( + X4 56) Z)
( >= Y4 0)
( <= ( + Y4 10 ) 193)
( >= X5 0)
( <= ( + X5 15) Z)
( >= Y5 0)
( <= ( + Y5 91 ) 193)
( >= X6 0)
( <= ( + X6 60) Z)
( >= Y6 0)
( <= ( + Y6 53 ) 193)
( >= X7 0)
( <= ( + X7 40) Z)
( >= Y7 0)
( <= ( + Y7 32 ) 193)
( >= X8 0)
( <= ( + X8 59) Z)
( >= Y8 0)
( <= ( + Y8 87 ) 193)
( >= X9 0)
( <= ( + X9 52) Z)
( >= Y9 0)
( <= ( + Y9 28 ) 193)
( >= X10 0)
( <= ( + X10 93) Z)
( >= Y10 0)
( <= ( + Y10 21 ) 193)
( >= X11 0)
( <= ( + X11 81) Z)
( >= Y11 0)
( <= ( + Y11 82 ) 193)
( >= X12 0)
( <= ( + X12 67) Z)
( >= Y12 0)
( <= ( + Y12 46 ) 193)
( >= X13 0)
( <= ( + X13 66) Z)
( >= Y13 0)
( <= ( + Y13 95 ) 193)
( >= X14 0)
( <= ( + X14 81) Z)
( >= Y14 0)
( <= ( + Y14 86 ) 193)
) )
(minimize Z)
(check-sat)
